RT is False
Default write of storage_offers_DA.csv just to have a file (but constraint should be inactive)
Reading model...
...model read.
creating competitive generators file...
...competitive generators recorded.
Loading data...
.. day-ahead data with real-time VRE data read.
Compiling instance...
...instance created.
Creating Offer Mitigation (model will solve as dispatch if TRUE)...
NOTE: storage offers will not be mitigated
...storage offer mitigation file created
Converting model to MPEC...
...converted
NOTE: initial MIP solve with only storage competitive to get feasible solution
Solving...

Welcome to IBM(R) ILOG(R) CPLEX(R) Interactive Optimizer 12.9.0.0
  with Simplex, Mixed Integer & Barrier Optimizers
5725-A06 5725-A29 5724-Y48 5724-Y49 5724-Y54 5724-Y55 5655-Y21
Copyright IBM Corp. 1988, 2019.  All Rights Reserved.

Type 'help' for a list of available commands.
Type 'help' followed by a command name for more
information on commands.

CPLEX> Logfile 'cplex.log' closed.
Logfile 'C:\Users\llavin\Desktop\test919\logs\tmpu0k86trp.cplex.log' open.
CPLEX> New value for parallel optimization mode: -1
CPLEX> New value for mixed integer optimality gap tolerance: 0.01
CPLEX> New value for integrality tolerance: 1e-09
CPLEX> New value for feasibility tolerance: 0.01
CPLEX> New value for deterministic time limit in ticks: 100000
CPLEX> Problem 'C:\Users\llavin\Desktop\test919\logs\tmp2bpcjx30.pyomo.lp' read.
Read time = 0.23 sec. (13.86 ticks)
CPLEX> Problem name         : C:\Users\llavin\Desktop\test919\logs\tmp2bpcjx30.pyomo.lp
Objective sense      : Maximize
Variables            :   53321  [Nneg: 1,  Box: 21806,  Free: 4416,
                                 Binary: 27098]
Objective nonzeros   :    8980
Linear constraints   :  122164  [Less: 40983,  Greater: 58612,  Equal: 22569]
  Nonzeros           :  288505
  RHS nonzeros       :   66982

Variables            : Min LB: -5000.000        Max UB: 1000000.       
Objective nonzeros   : Min   : 0.07500000       Max   : 731.8583       
Linear constraints   :
  Nonzeros           : Min   : 0.07500000       Max   : 1000000.       
  RHS nonzeros       : Min   : 0.07500000       Max   : 1000000.       
CPLEX> CPXPARAM_Parallel                                -1
CPXPARAM_Simplex_Tolerances_Feasibility          0.01
CPXPARAM_DetTimeLimit                            100000
CPXPARAM_MIP_Tolerances_MIPGap                   0.01
CPXPARAM_MIP_Tolerances_Integrality              1.0000000000000001e-09
Tried aggregator 3 times.
MIP Presolve eliminated 88100 rows and 18956 columns.
MIP Presolve added 3378 rows and 0 columns.
MIP Presolve modified 24469 coefficients.
Aggregator did 12856 substitutions.
Reduced MIP has 24586 rows, 20953 columns, and 68887 nonzeros.
Reduced MIP has 8285 binaries, 0 generals, 0 SOSs, and 0 indicators.
Presolve time = 0.30 sec. (171.40 ticks)
Probing fixed 450 vars, tightened 2915 bounds.
Probing time = 1.22 sec. (906.31 ticks)
Tried aggregator 2 times.
MIP Presolve eliminated 1002 rows and 901 columns.
MIP Presolve modified 2190 coefficients.
Aggregator did 52 substitutions.
Reduced MIP has 23532 rows, 20000 columns, and 65821 nonzeros.
Reduced MIP has 7835 binaries, 0 generals, 0 SOSs, and 0 indicators.
Presolve time = 0.11 sec. (66.99 ticks)
Probing time = 0.03 sec. (15.55 ticks)
Clique table members: 6312.
MIP emphasis: balance optimality and feasibility.
MIP search method: dynamic search.
Parallel mode: opportunistic, using up to 32 threads.
Root relaxation solution time = 0.44 sec. (339.38 ticks)

        Nodes                                         Cuts/
   Node  Left     Objective  IInf  Best Integer    Best Bound    ItCnt     Gap

      0     0     3981.0076  1724                   3981.0076     7699         
      0     0     3981.0076    17                     Cuts: 9     7706         
      0     0     3981.0076    15                 Flowcuts: 9     7713         
      0     2     3981.0076     8                     Cuts: 4     7713         
Elapsed time = 8.56 sec. (4979.84 ticks, tree = 0.02 MB, solutions = 0)
*   224    53      integral     0     3869.1560     3889.3296     8313    0.52%
*   282    63      integral     0     3881.5932     3889.3296     8343    0.20%

Cover cuts applied:  3
Implied bound cuts applied:  5
Flow cuts applied:  8
Gomory fractional cuts applied:  3

Root node processing (before b&c):
  Real time             =    6.97 sec. (4948.48 ticks)
Parallel b&c, 32 threads:
  Real time             =    2.55 sec. (276.74 ticks)
  Sync time (average)   =    0.76 sec.
  Wait time (average)   =    0.00 sec.
                          ------------
Total (root+branch&cut) =    9.52 sec. (5225.22 ticks)

Solution pool: 8 solutions saved.

MIP - Integer optimal, tolerance (0.01/1e-06):  Objective =  3.8815931623e+03
Current MIP best bound =  3.8893295624e+03 (gap = 7.7364, 0.20%)
Solution time =    9.56 sec.  Iterations = 9399  Nodes = 350 (8)
Deterministic time = 5225.37 ticks  (546.47 ticks/sec)

CPLEX> Incumbent solution written to file 'C:\Users\llavin\Desktop\test919\logs\tmpqhik8t4b.cplex.sol'.
CPLEX> NOTE: no warmstart specified for MIP iteration, default behavior is true
NOTE: resolving with all competitive generators using storage-only solution to warmstart
Solving...

Welcome to IBM(R) ILOG(R) CPLEX(R) Interactive Optimizer 12.9.0.0
  with Simplex, Mixed Integer & Barrier Optimizers
5725-A06 5725-A29 5724-Y48 5724-Y49 5724-Y54 5724-Y55 5655-Y21
Copyright IBM Corp. 1988, 2019.  All Rights Reserved.

Type 'help' for a list of available commands.
Type 'help' followed by a command name for more
information on commands.

CPLEX> Logfile 'cplex.log' closed.
Logfile 'C:\Users\llavin\Desktop\test919\logs\tmp35dm8rt_.cplex.log' open.
CPLEX> New value for parallel optimization mode: -1
CPLEX> New value for mixed integer optimality gap tolerance: 0.01
CPLEX> New value for integrality tolerance: 1e-09
CPLEX> New value for feasibility tolerance: 0.01
CPLEX> New value for deterministic time limit in ticks: 100000
CPLEX> Problem 'C:\Users\llavin\Desktop\test919\logs\tmpp7psdbsm.pyomo.lp' read.
Read time = 0.25 sec. (13.88 ticks)
CPLEX> MIP start file 'C:\Users\llavin\Desktop\test919\logs\tmpzb8eldca.cplex.mst' read.
CPLEX> Problem name         : C:\Users\llavin\Desktop\test919\logs\tmpp7psdbsm.pyomo.lp
Objective sense      : Maximize
Variables            :   54041  [Nneg: 1,  Box: 22526,  Free: 4416,
                                 Binary: 27098]
Objective nonzeros   :    9700
Linear constraints   :  122164  [Less: 40983,  Greater: 58612,  Equal: 22569]
  Nonzeros           :  288505
  RHS nonzeros       :   66982

Variables            : Min LB: -5000.000        Max UB: 1000000.       
Objective nonzeros   : Min   : 0.07500000       Max   : 731.8583       
Linear constraints   :
  Nonzeros           : Min   : 0.07500000       Max   : 1000000.       
  RHS nonzeros       : Min   : 0.07500000       Max   : 1000000.       
CPLEX> CPXPARAM_Parallel                                -1
CPXPARAM_Simplex_Tolerances_Feasibility          0.01
CPXPARAM_DetTimeLimit                            100000
CPXPARAM_MIP_Tolerances_MIPGap                   0.01
CPXPARAM_MIP_Tolerances_Integrality              1.0000000000000001e-09
Warning:  No solution found from 1 MIP starts.
Retaining values of one MIP start for possible repair.
Tried aggregator 3 times.
MIP Presolve eliminated 88100 rows and 19676 columns.
MIP Presolve added 3378 rows and 0 columns.
MIP Presolve modified 24469 coefficients.
Aggregator did 12856 substitutions.
Reduced MIP has 24586 rows, 20953 columns, and 68887 nonzeros.
Reduced MIP has 8285 binaries, 0 generals, 0 SOSs, and 0 indicators.
Presolve time = 0.28 sec. (171.76 ticks)
Probing fixed 450 vars, tightened 2915 bounds.
Probing time = 1.25 sec. (906.31 ticks)
Tried aggregator 2 times.
MIP Presolve eliminated 1002 rows and 901 columns.
MIP Presolve modified 2190 coefficients.
Aggregator did 52 substitutions.
Reduced MIP has 23532 rows, 20000 columns, and 65821 nonzeros.
Reduced MIP has 7835 binaries, 0 generals, 0 SOSs, and 0 indicators.
Presolve time = 0.11 sec. (66.99 ticks)
Probing time = 0.05 sec. (15.55 ticks)
Clique table members: 6312.
MIP emphasis: balance optimality and feasibility.
MIP search method: dynamic search.
Parallel mode: opportunistic, using up to 32 threads.
Root relaxation solution time = 0.45 sec. (339.38 ticks)

        Nodes                                         Cuts/
   Node  Left     Objective  IInf  Best Integer    Best Bound    ItCnt     Gap

      0     0     3981.0076  1724                   3981.0076     7699         
      0     0     3981.0076    17                     Cuts: 9     7706         
      0     0     3981.0076    15                 Flowcuts: 9     7713         
Repair heuristic found nothing.
      0     2     3981.0076     8                     Cuts: 3     7713         
Elapsed time = 8.84 sec. (5059.22 ticks, tree = 0.02 MB, solutions = 0)
*   135    72      integral     0     3856.0181     3890.4385     8514    0.89%
*   179    73      integral     0     3868.6575     3890.4385     8518    0.56%
*   214    50      integral     0     3881.5932     3890.4385     8048    0.23%

Cover cuts applied:  2
Implied bound cuts applied:  2
Flow cuts applied:  8
Gomory fractional cuts applied:  3

Root node processing (before b&c):
  Real time             =    7.30 sec. (5028.27 ticks)
Parallel b&c, 32 threads:
  Real time             =    2.47 sec. (276.82 ticks)
  Sync time (average)   =    0.65 sec.
  Wait time (average)   =    0.00 sec.
                          ------------
Total (root+branch&cut) =    9.77 sec. (5305.09 ticks)

Solution pool: 9 solutions saved.

MIP - Integer optimal, tolerance (0.01/1e-06):  Objective =  3.8815931623e+03
Current MIP best bound =  3.8904385199e+03 (gap = 8.84536, 0.23%)
Solution time =    9.78 sec.  Iterations = 10089  Nodes = 324 (3)
Deterministic time = 5305.25 ticks  (542.40 ticks/sec)

CPLEX> Incumbent solution written to file 'C:\Users\llavin\Desktop\test919\logs\tmpicfr42jv.cplex.sol'.
CPLEX> Exporting results... 
